c Source: TUDataset PTC_MR, graph #190
c Original: n=9, m=9
c Augmented: +4 edges, n=10 -> m=13, circuit_rank=4
c Augmented to satisfy Eulerian condition (no parallel edges)
p sp 10
e 6 8
e 1 8
e 3 4
e 6 7
e 8 9
e 1 3
e 4 5
e 1 2
e 5 6
e 1 10
e 8 10
e 2 6
e 7 9
